100 50 
1 87 1
2 40 1
4 51 1
4 47 1
4 35 1
5 23 1
5 94 1
5 44 1
5 73 1
7 35 1
8 54 1
11 90 1
12 45 1
13 50 1
14 70 1
15 19 1
15 32 1
15 51 1
15 71 1
15 38 1
15 72 1
16 72 1
17 28 1
17 21 1
27 79 1
29 59 1
30 85 1
31 33 1
32 70 1
32 48 1
37 47 1
38 74 1
41 96 1
42 82 1
42 91 1
46 50 1
58 62 1
58 60 1
59 100 1
60 92 1
61 72 1
65 84 1
67 95 1
68 69 1
68 83 1
69 89 1
75 94 1
81 83 1
87 96 1
92 96 1
